nNurses = 95;
nHours = 31;
minHours = 7;
maxHours = 18;
maxConsec = 12;
maxPresence = 30;
demand = [20, 20, 25, 26, 27, 28, 33, 30, 33, 30, 33, 36, 34, 36, 39, 36, 38, 34, 31, 30, 33, 36, 32, 37, 40, 36, 32, 30, 33, 29, 29];
